SECTION Graph
Nodes 212
Edges 381
E 1 2 5
E 2 3 5
E 3 4 5
E 4 5 5
E 5 6 5
E 6 7 5
E 7 8 5
E 8 9 5
E 9 10 5
E 10 11 5
E 11 12 5
E 12 13 5
E 13 14 5
E 14 15 5
E 15 16 5
E 16 17 5
E 17 18 5
E 18 19 5
E 19 20 5
E 1 21 13
E 2 22 13
E 3 23 13
E 4 24 13
E 5 25 13
E 6 26 13
E 7 27 13
E 8 28 13
E 9 29 13
E 10 30 13
E 11 31 13
E 12 32 13
E 13 33 13
E 14 34 13
E 15 35 13
E 16 36 13
E 17 37 13
E 18 38 13
E 19 39 13
E 20 40 13
E 21 22 5
E 22 23 5
E 23 24 5
E 24 25 5
E 25 26 5
E 26 27 5
E 27 28 5
E 28 29 5
E 29 30 5
E 30 31 5
E 31 32 5
E 32 33 5
E 33 34 5
E 34 35 5
E 35 36 5
E 36 37 5
E 37 38 5
E 38 39 5
E 39 40 5
E 21 41 13
E 22 42 13
E 23 43 13
E 24 44 13
E 25 45 13
E 26 46 13
E 27 47 13
E 28 48 13
E 29 49 13
E 30 50 13
E 31 51 13
E 32 52 13
E 33 53 13
E 34 54 13
E 35 55 13
E 36 56 13
E 38 57 13
E 39 58 13
E 40 59 13
E 41 42 5
E 42 43 5
E 43 44 5
E 44 45 5
E 45 46 5
E 46 47 5
E 47 48 5
E 48 49 5
E 49 50 5
E 50 51 5
E 51 52 5
E 52 53 5
E 53 54 5
E 54 55 5
E 55 56 5
E 57 58 5
E 58 59 5
E 41 60 13
E 42 61 13
E 43 62 13
E 44 63 13
E 46 64 13
E 47 65 13
E 48 66 13
E 49 67 13
E 50 68 13
E 51 69 13
E 52 70 13
E 53 71 13
E 54 72 13
E 55 73 13
E 56 74 13
E 57 75 13
E 59 76 13
E 60 61 5
E 61 62 5
E 62 63 5
E 64 65 5
E 65 66 5
E 66 67 5
E 67 68 5
E 68 69 5
E 69 70 5
E 70 71 5
E 71 72 5
E 72 73 5
E 73 74 5
E 60 77 13
E 61 78 13
E 62 79 13
E 63 80 13
E 64 81 13
E 65 82 13
E 66 83 13
E 67 84 13
E 68 85 13
E 69 86 13
E 70 87 13
E 71 88 13
E 72 89 13
E 73 90 13
E 74 91 13
E 75 93 13
E 76 94 13
E 77 78 5
E 78 79 5
E 79 80 5
E 81 82 5
E 82 83 5
E 83 84 5
E 84 85 5
E 85 86 5
E 86 87 5
E 87 88 5
E 88 89 5
E 89 90 5
E 90 91 5
E 91 92 5
E 92 93 5
E 77 95 13
E 78 96 13
E 79 97 13
E 80 98 13
E 81 100 13
E 82 101 13
E 83 102 13
E 84 103 13
E 85 104 13
E 86 105 13
E 87 106 13
E 88 107 13
E 89 108 13
E 90 109 13
E 91 110 13
E 92 111 13
E 93 112 13
E 94 114 13
E 95 96 5
E 96 97 5
E 97 98 5
E 98 99 5
E 99 100 5
E 100 101 5
E 101 102 5
E 102 103 5
E 103 104 5
E 104 105 5
E 105 106 5
E 106 107 5
E 107 108 5
E 108 109 5
E 109 110 5
E 110 111 5
E 111 112 5
E 112 113 5
E 113 114 5
E 95 115 13
E 96 116 13
E 97 117 13
E 98 118 13
E 99 119 13
E 100 120 13
E 101 121 13
E 102 122 13
E 103 123 13
E 104 124 13
E 105 125 13
E 106 126 13
E 107 127 13
E 108 128 13
E 109 129 13
E 111 130 13
E 112 131 13
E 113 132 13
E 114 133 13
E 115 116 5
E 116 117 5
E 117 118 5
E 118 119 5
E 119 120 5
E 120 121 5
E 121 122 5
E 122 123 5
E 123 124 5
E 124 125 5
E 125 126 5
E 126 127 5
E 127 128 5
E 128 129 5
E 130 131 5
E 131 132 5
E 132 133 5
E 115 134 13
E 116 135 13
E 117 136 13
E 118 137 13
E 119 138 13
E 120 139 13
E 121 140 13
E 122 141 13
E 123 142 13
E 124 143 13
E 125 144 13
E 126 145 13
E 127 146 13
E 128 147 13
E 129 148 13
E 130 149 13
E 131 150 13
E 132 151 13
E 133 152 13
E 134 135 5
E 135 136 5
E 136 137 5
E 137 138 5
E 138 139 5
E 139 140 5
E 140 141 5
E 141 142 5
E 142 143 5
E 143 144 5
E 144 145 5
E 145 146 5
E 146 147 5
E 147 148 5
E 149 150 5
E 150 151 5
E 151 152 5
E 134 153 13
E 135 154 13
E 136 155 13
E 137 156 13
E 138 157 13
E 139 158 13
E 140 159 13
E 141 160 13
E 142 161 13
E 143 162 13
E 144 163 13
E 145 164 13
E 146 165 13
E 147 166 13
E 148 167 13
E 149 169 13
E 150 170 13
E 151 171 13
E 152 172 13
E 153 154 5
E 154 155 5
E 155 156 5
E 156 157 5
E 157 158 5
E 158 159 5
E 159 160 5
E 160 161 5
E 161 162 5
E 162 163 5
E 163 164 5
E 164 165 5
E 165 166 5
E 166 167 5
E 167 168 5
E 168 169 5
E 169 170 5
E 170 171 5
E 171 172 5
E 153 173 13
E 154 174 13
E 155 175 13
E 156 176 13
E 157 177 13
E 158 178 13
E 159 179 13
E 160 180 13
E 161 181 13
E 162 182 13
E 163 183 13
E 164 184 13
E 165 185 13
E 166 186 13
E 167 187 13
E 168 188 13
E 169 189 13
E 170 190 13
E 171 191 13
E 172 192 13
E 173 174 5
E 174 175 5
E 175 176 5
E 176 177 5
E 177 178 5
E 178 179 5
E 179 180 5
E 180 181 5
E 181 182 5
E 182 183 5
E 183 184 5
E 184 185 5
E 185 186 5
E 186 187 5
E 187 188 5
E 188 189 5
E 189 190 5
E 190 191 5
E 191 192 5
E 173 193 13
E 174 194 13
E 175 195 13
E 176 196 13
E 177 197 13
E 178 198 13
E 179 199 13
E 180 200 13
E 181 201 13
E 182 202 13
E 183 203 13
E 184 204 13
E 185 205 13
E 186 206 13
E 187 207 13
E 188 208 13
E 189 209 13
E 190 210 13
E 191 211 13
E 192 212 13
E 193 194 5
E 194 195 5
E 195 196 5
E 196 197 5
E 197 198 5
E 198 199 5
E 199 200 5
E 200 201 5
E 201 202 5
E 202 203 5
E 203 204 5
E 204 205 5
E 205 206 5
E 206 207 5
E 207 208 5
E 208 209 5
E 209 210 5
E 210 211 5
E 211 212 5
END

SECTION Terminals
Terminals 11
T 9
T 11
T 17
T 19
T 24
T 31
T 55
T 69
T 162
T 169
T 173
END

EOF
